90
1567
4
93
67
8
4
0 3
0 6
0 7
0 9
0 12
0 13
0 15
0 16
0 17
0 20
0 24
0 25
0 26
0 28
0 29
0 33
0 35
0 36
0 42
0 43
0 44
0 45
0 47
0 55
0 58
0 59
0 61
0 64
0 65
0 71
0 72
0 73
0 74
0 77
0 78
0 79
0 80
0 82
0 83
0 88
0 89
1 7
1 8
1 15
1 16
1 17
1 20
1 22
1 24
1 36
1 39
1 40
1 43
1 44
1 47
1 49
1 50
1 53
1 55
1 56
1 57
1 63
1 67
1 70
1 79
1 80
1 81
1 82
1 84
1 89
2 3
2 9
2 10
2 11
2 14
2 16
2 19
2 21
2 24
2 26
2 27
2 31
2 33
2 34
2 38
2 39
2 40
2 41
2 43
2 44
2 51
2 53
2 54
2 55
2 61
2 69
2 70
2 74
2 75
2 81
3 5
3 9
3 10
3 12
3 14
3 16
3 17
3 19
3 23
3 25
3 26
3 27
3 32
3 34
3 39
3 40
3 44
3 49
3 52
3 56
3 60
3 62
3 63
3 64
3 65
3 71
3 73
3 74
3 75
3 76
3 79
3 81
3 85
3 86
3 89
4 5
4 6
4 7
4 9
4 13
4 14
4 16
4 18
4 20
4 23
4 32
4 33
4 34
4 37
4 38
4 39
4 40
4 41
4 42
4 49
4 51
4 57
4 63
4 64
4 67
4 70
4 72
4 76
4 79
4 86
4 87
5 6
5 8
5 11
5 13
5 14
5 19
5 22
5 23
5 24
5 25
5 27
5 30
5 31
5 32
5 34
5 35
5 36
5 39
5 41
5 43
5 44
5 47
5 48
5 52
5 56
5 60
5 64
5 67
5 69
5 73
5 74
5 76
5 85
5 86
5 87
5 88
5 89
6 7
6 9
6 10
6 11
6 12
6 13
6 18
6 19
6 20
6 23
6 29
6 30
6 31
6 32
6 33
6 34
6 35
6 36
6 37
6 39
6 40
6 42
6 43
6 46
6 49
6 50
6 51
6 58
6 59
6 60
6 62
6 64
6 66
6 69
6 73
6 78
6 80
6 81
6 83
6 87
6 88
7 12
7 15
7 26
7 29
7 31
7 32
7 36
7 41
7 54
7 55
7 59
7 63
7 65
7 66
7 70
7 72
7 74
7 75
7 79
7 82
7 83
7 84
7 85
7 87
7 88
8 12
8 13
8 14
8 15
8 19
8 20
8 26
8 28
8 30
8 31
8 37
8 38
8 39
8 42
8 44
8 45
8 46
8 47
8 50
8 55
8 56
8 57
8 58
8 61
8 65
8 66
8 67
8 68
8 71
8 73
8 74
8 76
8 77
8 78
8 80
8 83
8 87
9 11
9 15
9 16
9 17
9 21
9 22
9 23
9 37
9 38
9 39
9 40
9 42
9 43
9 44
9 45
9 47
9 49
9 50
9 51
9 56
9 59
9 60
9 62
9 63
9 64
9 65
9 67
9 70
9 72
9 74
9 80
9 85
9 86
9 88
9 89
10 11
10 16
10 17
10 29
10 35
10 38
10 40
10 43
10 44
10 45
10 51
10 52
10 53
10 59
10 71
10 73
10 74
10 78
10 82
10 84
10 85
11 12
11 13
11 15
11 18
11 21
11 22
11 25
11 27
11 29
11 31
11 32
11 34
11 36
11 37
11 38
11 41
11 42
11 44
11 54
11 61
11 62
11 67
11 68
11 70
11 73
11 74
11 75
11 76
11 80
11 81
11 84
11 85
11 89
12 13
12 21
12 22
12 26
12 27
12 30
12 31
12 32
12 36
12 46
12 47
12 51
12 53
12 55
12 57
12 62
12 63
12 65
12 66
12 67
12 69
12 71
12 77
12 80
12 88
12 89
13 16
13 20
13 21
13 23
13 26
13 27
13 29
13 32
13 33
13 34
13 36
13 39
13 40
13 45
13 48
13 49
13 50
13 51
13 53
13 57
13 58
13 59
13 60
13 68
13 69
13 71
13 75
13 78
14 16
14 17
14 18
14 21
14 22
14 23
14 30
14 35
14 40
14 43
14 44
14 47
14 51
14 52
14 56
14 58
14 60
14 62
14 71
14 72
14 73
14 74
14 75
14 76
14 78
14 79
14 81
14 83
14 84
14 85
14 87
14 89
15 16
15 17
15 18
15 20
15 22
15 25
15 28
15 29
15 35
15 36
15 38
15 41
15 44
15 47
15 52
15 56
15 57
15 58
15 61
15 63
15 64
15 67
15 69
15 76
15 78
15 80
15 86
15 89
16 18
16 22
16 24
16 27
16 29
16 40
16 41
16 42
16 43
16 44
16 45
16 50
16 51
16 52
16 55
16 69
16 70
16 76
16 77
16 78
16 79
16 81
16 82
16 86
17 18
17 19
17 22
17 25
17 26
17 27
17 28
17 30
17 32
17 37
17 38
17 44
17 45
17 46
17 47
17 48
17 52
17 53
17 57
17 58
17 59
17 62
17 65
17 72
17 74
17 75
17 77
17 79
17 81
17 83
17 85
17 88
17 89
18 20
18 23
18 28
18 29
18 30
18 35
18 39
18 42
18 44
18 45
18 46
18 51
18 52
18 60
18 61
18 63
18 66
18 76
18 77
18 79
18 80
18 81
18 82
18 83
18 84
18 85
18 87
18 89
19 22
19 24
19 27
19 30
19 32
19 33
19 36
19 37
19 42
19 47
19 48
19 49
19 52
19 53
19 58
19 62
19 66
19 67
19 70
19 72
19 73
19 75
19 77
19 80
19 81
19 82
19 84
19 88
19 89
20 21
20 22
20 23
20 28
20 32
20 35
20 42
20 43
20 45
20 49
20 50
20 52
20 53
20 55
20 56
20 60
20 62
20 64
20 65
20 67
20 69
20 70
20 71
20 73
20 79
20 82
20 83
20 84
20 85
21 22
21 29
21 31
21 32
21 36
21 37
21 42
21 43
21 45
21 49
21 50
21 51
21 59
21 61
21 63
21 64
21 67
21 68
21 69
21 71
21 75
21 76
21 79
21 80
21 81
21 84
21 85
22 23
22 26
22 27
22 28
22 32
22 33
22 34
22 46
22 59
22 62
22 63
22 64
22 65
22 66
22 69
22 71
22 72
22 73
22 76
22 77
22 78
22 81
22 86
22 87
23 24
23 27
23 29
23 30
23 31
23 35
23 36
23 39
23 41
23 50
23 51
23 52
23 55
23 58
23 59
23 60
23 62
23 64
23 65
23 66
23 75
23 78
23 82
23 86
23 89
24 29
24 33
24 37
24 46
24 50
24 54
24 56
24 57
24 64
24 65
24 73
24 78
24 80
24 88
25 26
25 28
25 29
25 36
25 37
25 40
25 43
25 48
25 51
25 53
25 55
25 58
25 59
25 60
25 62
25 64
25 65
25 67
25 73
25 76
25 78
25 81
25 84
25 87
26 27
26 33
26 34
26 37
26 38
26 39
26 40
26 43
26 44
26 45
26 47
26 50
26 54
26 57
26 59
26 61
26 62
26 65
26 67
26 68
26 73
26 75
26 77
26 79
26 82
26 83
26 85
26 88
27 28
27 31
27 33
27 40
27 41
27 45
27 46
27 47
27 48
27 50
27 54
27 57
27 58
27 60
27 61
27 63
27 65
27 68
27 69
27 71
27 73
27 76
27 86
27 87
27 89
28 32
28 34
28 36
28 39
28 42
28 44
28 46
28 49
28 51
28 56
28 57
28 59
28 62
28 63
28 65
28 68
28 71
28 73
28 76
28 78
28 79
28 82
28 83
28 87
28 88
29 32
29 33
29 34
29 37
29 41
29 43
29 44
29 48
29 49
29 52
29 55
29 56
29 65
29 66
29 71
29 72
29 73
29 74
29 76
29 77
29 87
29 88
29 89
30 31
30 32
30 34
30 39
30 43
30 46
30 49
30 50
30 51
30 54
30 55
30 60
30 65
30 72
30 73
30 75
30 76
30 77
30 80
30 83
30 85
30 86
31 33
31 34
31 35
31 36
31 42
31 48
31 50
31 53
31 57
31 58
31 59
31 60
31 62
31 63
31 64
31 65
31 71
31 74
31 79
31 80
31 82
31 85
31 86
31 89
32 33
32 34
32 36
32 44
32 46
32 47
32 50
32 51
32 54
32 55
32 56
32 57
32 60
32 62
32 66
32 68
32 70
32 71
32 72
32 74
32 77
32 78
32 84
32 86
32 89
33 37
33 39
33 40
33 42
33 43
33 45
33 51
33 52
33 57
33 58
33 59
33 62
33 63
33 64
33 66
33 67
33 69
33 70
33 71
33 78
33 80
33 86
33 87
33 88
33 89
34 39
34 43
34 46
34 61
34 62
34 68
34 76
34 78
34 79
34 80
34 86
34 87
34 88
35 36
35 38
35 41
35 48
35 49
35 53
35 56
35 57
35 58
35 59
35 63
35 65
35 66
35 69
35 71
35 78
35 81
35 84
35 85
35 88
36 37
36 38
36 40
36 43
36 46
36 49
36 52
36 54
36 55
36 60
36 61
36 64
36 65
36 66
36 70
36 74
36 76
36 77
36 78
36 80
36 82
36 84
36 85
36 86
37 38
37 40
37 41
37 45
37 46
37 50
37 51
37 53
37 54
37 55
37 57
37 60
37 61
37 62
37 65
37 66
37 68
37 69
37 71
37 76
37 77
37 78
37 81
37 85
37 89
38 43
38 49
38 51
38 52
38 53
38 54
38 55
38 57
38 63
38 64
38 66
38 69
38 72
38 76
38 77
38 80
38 81
38 82
38 83
38 87
39 41
39 43
39 46
39 47
39 48
39 49
39 51
39 53
39 55
39 61
39 62
39 66
39 68
39 73
39 79
39 80
39 81
39 82
39 83
39 86
39 87
39 88
40 41
40 50
40 53
40 55
40 56
40 58
40 59
40 60
40 62
40 64
40 69
40 71
40 75
40 76
40 88
40 89
41 45
41 51
41 56
41 57
41 71
41 72
41 73
41 74
41 75
41 76
41 78
41 83
41 86
41 87
42 43
42 44
42 45
42 50
42 51
42 54
42 56
42 57
42 61
42 62
42 67
42 71
42 79
42 80
42 81
42 82
42 85
43 46
43 47
43 49
43 51
43 53
43 58
43 60
43 62
43 68
43 70
43 71
43 72
43 74
43 75
43 78
43 79
43 82
43 83
43 84
43 89
44 47
44 49
44 54
44 57
44 65
44 71
44 75
44 76
44 83
44 84
45 46
45 47
45 49
45 50
45 53
45 54
45 59
45 61
45 63
45 65
45 66
45 71
45 84
45 86
45 89
46 49
46 50
46 54
46 55
46 57
46 64
46 67
46 68
46 70
46 71
46 74
46 76
46 78
46 79
46 80
46 85
46 86
46 88
47 48
47 50
47 58
47 60
47 63
47 65
47 67
47 70
47 73
47 74
47 75
47 77
47 82
47 83
47 84
47 85
47 87
47 88
47 89
48 50
48 54
48 55
48 56
48 58
48 63
48 69
48 74
48 77
48 80
48 81
48 82
48 83
48 88
49 50
49 55
49 58
49 59
49 60
49 64
49 67
49 68
49 70
49 73
49 79
50 51
50 66
50 67
50 69
50 71
50 72
50 75
50 76
50 77
50 80
50 81
50 83
50 84
50 85
50 88
50 89
51 52
51 54
51 57
51 59
51 60
51 62
51 63
51 65
51 67
51 71
51 72
51 73
51 82
51 83
51 84
51 86
52 53
52 54
52 55
52 59
52 61
52 62
52 63
52 67
52 71
52 74
52 75
52 76
52 77
52 78
52 79
52 81
52 82
52 84
52 85
53 54
53 56
53 57
53 58
53 64
53 67
53 68
53 73
53 75
53 78
53 79
53 83
53 85
53 87
54 55
54 60
54 61
54 66
54 68
54 73
54 75
54 76
54 78
54 80
54 81
54 83
54 88
55 56
55 61
55 63
55 64
55 66
55 69
55 74
55 75
55 77
55 80
55 82
55 85
55 86
56 58
56 60
56 61
56 64
56 66
56 72
56 73
56 76
56 77
56 79
56 82
56 86
56 87
56 89
57 58
57 59
57 62
57 63
57 64
57 67
57 69
57 70
57 71
57 72
57 79
57 80
57 87
58 60
58 61
58 63
58 68
58 71
58 81
58 83
58 88
59 60
59 65
59 68
59 71
59 72
59 74
59 75
59 80
59 82
59 83
59 84
60 61
60 63
60 64
60 67
60 69
60 72
60 73
60 76
60 80
60 81
60 84
60 85
60 89
61 62
61 67
61 69
61 72
61 75
61 80
61 81
61 85
61 86
61 89
62 64
62 67
62 68
62 69
62 70
62 71
62 72
62 73
62 74
62 78
62 80
62 82
62 83
62 87
62 88
63 66
63 67
63 68
63 73
63 74
63 75
63 76
63 77
63 79
63 80
63 82
63 89
64 67
64 68
64 70
64 74
64 75
64 85
64 86
65 66
65 67
65 68
65 72
65 73
65 76
65 78
65 79
65 81
65 83
65 85
65 86
65 87
66 72
66 73
66 75
66 80
66 81
66 83
66 88
66 89
67 68
67 69
67 71
67 72
67 73
67 76
67 77
67 79
67 80
67 87
68 79
68 83
68 84
69 70
69 72
69 75
69 78
69 79
69 80
69 81
69 84
69 88
70 72
70 73
70 77
70 78
70 79
70 82
70 84
70 86
70 87
70 88
70 89
71 72
71 74
71 77
71 79
71 82
71 86
71 89
72 73
72 74
72 75
72 76
72 77
72 78
72 79
72 85
72 87
73 74
73 78
73 79
73 82
73 84
73 85
73 86
73 87
73 88
73 89
74 76
74 78
74 82
74 85
74 87
74 88
75 76
75 77
75 78
75 79
75 85
76 78
76 80
76 81
76 84
76 86
76 89
77 81
77 82
77 83
77 84
77 85
77 87
77 88
77 89
78 81
78 84
78 85
78 86
78 87
78 88
79 81
79 82
79 83
79 84
79 86
79 88
80 84
80 85
80 89
81 83
81 84
81 86
81 87
81 88
81 89
83 87
84 87
85 86
85 87
86 87
88 89
11 30 71 5 3 82 81 52 63 38 23 35 46 41 4 88 78 64 76 19 32 72 84 49 56 51 27
53 58 25 33 85 14 40 48 6 36 45 16 39 0 65 7 21 60 68 69 15 54 8 34 17 87 67
43 2 12 89 77 31 42 26 70 83 57 22 79 73 13 29 50 80 75 20 1 61 62 44 47 28 10
55 24 9 59 37 66 18 86 74
